%SETS
JOBS     = 1..2;
MACHINES = 1..5;
SPEED    = 1;

time               = array3d(JOBS,MACHINES,1..SPEED,[68, 49, 90, 96, 44, 81, 57, 61, 93, 16]);
energy             = array3d(JOBS,MACHINES,1..SPEED,[50, 61, 40, 38, 64, 44, 56, 54, 39, 85]);
precedence         = array2d(JOBS,MACHINES,[3,4,0,2,1,4,1,3,0,2]);